UBC_100_3.txt

VEHICLE     CAPACITY  LOCATIONS  CUSTOMER  OPTIONS  PRIORITIES  NUMTYPS
10		400		105		100		200		3		4

CUSTOMER  DEMAND
0	 10
1	 12
2	 16
3	 12
4	 11
5	 16
6	 20
7	 13
8	 17
9	 12
10	 19
11	 14
12	 13
13	 13
14	 17
15	 11
16	 18
17	 17
18	 16
19	 19
20	 14
21	 16
22	 16
23	 10
24	 19
25	 14
26	 13
27	 20
28	 14
29	 14
30	 10
31	 20
32	 18
33	 20
34	 15
35	 14
36	 19
37	 18
38	 10
39	 18
40	 19
41	 10
42	 11
43	 19
44	 12
45	 15
46	 16
47	 18
48	 13
49	 15
50	 19
51	 14
52	 10
53	 11
54	 13
55	 11
56	 14
57	 16
58	 18
59	 17
60	 17
61	 12
62	 12
63	 20
64	 14
65	 19
66	 12
67	 15
68	 11
69	 12
70	 15
71	 10
72	 13
73	 10
74	 10
75	 20
76	 15
77	 15
78	 18
79	 18
80	 20
81	 17
82	 12
83	 18
84	 17
85	 19
86	 17
87	 18
88	 16
89	 16
90	 11
91	 14
92	 16
93	 19
94	 12
95	 19
96	 17
97	 10
98	 19
99	 12

LOCATION  XCOORD  YCOORD  CAP  READY  DUE  TYP  SERVICETIME
0		8		50		-1		0		720	 0		0
1		4		31		-1		360		720		 2		6
2		8		12		-1		0		360		 2		6
3		20		24		-1		0		360		 2		6
4		33		1		-1		138		258		 2		6
5		14		30		-1		0		360		 2		6
6		39		27		-1		0		360		 2		6
7		13		33		-1		97		337		 2		6
8		20		48		-1		492		612		 2		6
9		44		38		-1		21		141		 2		6
10		14		18		-1		0		360		 2		6
11		35		50		-1		104		224		 2		6
12		14		17		-1		15		135		 2		6
13		17		45		-1		514		634		 2		6
14		34		42		-1		441		681		 2		6
15		24		49		-1		360		720		 2		6
16		41		3		-1		423		543		 2		6
17		10		24		-1		0		360		 2		6
18		7		49		-1		13		133		 2		6
19		32		47		-1		331		571		 2		6
20		26		48		-1		588		708		 2		6
21		32		16		-1		523		643		 2		6
22		26		20		-1		0		360		 2		6
23		8		24		-1		0		360		 2		6
24		20		25		-1		30		150		 2		6
25		4		16		-1		538		658		 2		6
26		6		25		-1		148		388		 2		6
27		30		4		-1		360		720		 2		6
28		1		7		-1		33		153		 2		6
29		14		26		-1		466		586		 2		6
30		7		29		-1		359		599		 2		6
31		47		36		-1		238		478		 2		6
32		37		7		-1		368		488		 2		6
33		45		24		-1		360		720		 2		6
34		26		43		-1		360		720		 2		6
35		22		42		-1		360		720		 2		6
36		23		45		-1		308		548		 2		6
37		6		28		-1		454		574		 2		6
38		23		26		-1		322		562		 2		6
39		19		20		-1		44		164		 2		6
40		42		7		-1		0		360		 2		6
41		14		46		-1		360		720		 2		6
42		25		7		-1		490		610		 2		6
43		7		25		-1		285		525		 2		6
44		31		6		-1		0		360		 2		6
45		47		14		-1		285		525		 2		6
46		18		42		-1		360		720		 2		6
47		7		19		-1		360		720		 2		6
48		44		38		-1		360		720		 2		6
49		21		17		-1		466		706		 2		6
50		36		5		-1		360		720		 2		6
51		12		43		-1		0		360		 2		6
52		30		48		-1		0		360		 2		6
53		11		48		-1		0		360		 2		6
54		28		46		-1		0		360		 2		6
55		25		9		-1		360		720		 2		6
56		33		29		-1		482		602		 2		6
57		9		14		-1		360		720		 2		6
58		42		3		-1		0		360		 2		6
59		14		14		-1		93		333		 2		6
60		6		38		-1		434		554		 2		6
61		28		20		-1		360		720		 2		6
62		39		37		-1		167		287		 2		6
63		14		38		-1		406		526		 2		6
64		12		16		-1		233		473		 2		6
65		8		3		-1		363		483		 2		6
66		27		50		-1		500		620		 2		6
67		28		40		-1		97		217		 2		6
68		31		25		-1		291		531		 2		6
69		14		9		-1		432		552		 2		6
70		48		9		-1		378		498		 2		6
71		33		23		-1		360		720		 2		6
72		13		2		-1		164		404		 2		6
73		34		37		-1		360		720		 2		6
74		39		40		-1		360		720		 2		6
75		13		40		-1		426		546		 2		6
76		12		39		-1		360		720		 2		6
77		39		47		-1		96		336		 2		6
78		6		8		-1		597		717		 2		6
79		15		5		-1		112		232		 2		6
80		16		9		-1		0		360		 2		6
81		37		25		-1		360		720		 2		6
82		40		42		-1		360		720		 2		6
83		49		33		-1		173		293		 2		6
84		47		33		-1		15		135		 2		6
85		31		31		-1		426		666		 2		6
86		33		47		-1		34		154		 2		6
87		17		50		-1		0		360		 2		6
88		18		45		-1		433		673		 2		6
89		50		41		-1		86		206		 2		6
90		27		44		-1		48		168		 2		6
91		9		8		-1		395		635		 2		6
92		2		16		-1		0		360		 2		6
93		47		1		-1		0		360		 2		6
94		50		50		-1		421		541		 2		6
95		30		21		-1		108		228		 2		6
96		30		7		-1		448		688		 2		6
97		39		16		-1		481		601		 2		6
98		14		45		-1		156		396		 2		6
99		41		8		-1		419		539		 2		6
100		49		45		-1		325		565		 2		6
101		29		34		24		0		720		 1		4
102		13		44		30		162		642		 1		4
103		5		31		30		0		720		 1		4
104		35		21		22		0		720		 1		4
OPTION  LOCATION  CUSTOMER  PRIO  SERVICETIME   COST
0		104		0		0		2		0
1		101		1		0		2		0
2		102		2		0		2		0
3		103		3		0		2		0
4		102		4		0		2		0
5		102		5		0		2		0
6		101		6		0		2		0
7		102		7		0		2		0
8		102		8		0		2		0
9		103		9		0		2		0
10		102		10		0		2		0
11		103		11		0		2		0
12		102		12		0		2		0
13		103		13		0		2		0
14		102		14		0		2		0
15		104		15		0		2		0
16		101		16		0		2		0
17		102		17		0		2		0
18		104		18		0		2		0
19		101		19		0		2		0
20		1		20		0		5		0
21		2		21		0		5		0
22		3		22		0		5		0
23		4		23		0		5		0
24		5		24		0		5		0
25		6		25		0		5		0
26		7		26		0		5		0
27		8		27		0		5		0
28		9		28		0		5		0
29		10		29		0		5		0
30		11		30		0		5		0
31		12		31		0		5		0
32		13		32		0		5		0
33		14		33		0		5		0
34		15		34		0		5		0
35		16		35		0		5		0
36		17		36		0		5		0
37		18		37		0		5		0
38		19		38		0		5		0
39		20		39		0		5		0
40		21		40		1		5		0
41		102		40		0		2		0
42		22		41		1		5		0
43		104		41		0		2		0
44		23		42		0		5		0
45		102		42		1		2		0
46		24		43		0		5		0
47		104		43		1		2		0
48		25		44		0		5		0
49		103		44		1		2		0
50		26		45		1		5		0
51		103		45		0		2		0
52		27		46		1		5		0
53		104		46		0		2		0
54		28		47		1		5		0
55		103		47		0		2		0
56		29		48		1		5		0
57		101		48		0		2		0
58		30		49		0		5		0
59		103		49		1		2		0
60		31		50		0		5		0
61		102		50		1		2		0
62		32		51		1		5		0
63		103		51		0		2		0
64		33		52		0		5		0
65		104		52		1		2		0
66		34		53		0		5		0
67		104		53		1		2		0
68		35		54		0		5		0
69		103		54		1		2		0
70		36		55		0		5		0
71		104		55		1		2		0
72		37		56		0		5		0
73		102		56		1		2		0
74		38		57		0		5		0
75		104		57		1		2		0
76		39		58		0		5		0
77		102		58		1		2		0
78		40		59		1		5		0
79		104		59		0		2		0
80		41		60		2		5		0
81		104		60		1		2		0
82		102		60		0		2		0
83		42		61		0		5		0
84		104		61		1		2		0
85		103		61		2		2		0
86		43		62		1		5		0
87		102		62		0		2		0
88		103		62		2		2		0
89		44		63		2		5		0
90		104		63		0		2		0
91		103		63		1		2		0
92		45		64		2		5		0
93		101		64		1		2		0
94		102		64		0		2		0
95		46		65		1		5		0
96		104		65		2		2		0
97		101		65		0		2		0
98		47		66		1		5		0
99		101		66		2		2		0
100		102		66		0		2		0
101		48		67		2		5		0
102		102		67		1		2		0
103		101		67		0		2		0
104		49		68		0		5		0
105		104		68		1		2		0
106		102		68		2		2		0
107		50		69		2		5		0
108		102		69		0		2		0
109		104		69		1		2		0
110		51		70		1		5		0
111		101		70		2		2		0
112		103		70		0		2		0
113		52		71		0		5		0
114		104		71		2		2		0
115		102		71		1		2		0
116		53		72		1		5		0
117		104		72		0		2		0
118		102		72		2		2		0
119		54		73		1		5		0
120		103		73		2		2		0
121		102		73		0		2		0
122		55		74		0		5		0
123		102		74		1		2		0
124		101		74		2		2		0
125		56		75		2		5		0
126		101		75		0		2		0
127		104		75		1		2		0
128		57		76		1		5		0
129		102		76		2		2		0
130		101		76		0		2		0
131		58		77		0		5		0
132		102		77		1		2		0
133		104		77		2		2		0
134		59		78		1		5		0
135		104		78		2		2		0
136		102		78		0		2		0
137		60		79		0		5		0
138		101		79		2		2		0
139		104		79		1		2		0
140		61		80		1		5		0
141		62		80		2		5		0
142		103		80		0		2		0
143		63		81		1		5		0
144		64		81		2		5		0
145		101		81		0		2		0
146		65		82		2		5		0
147		66		82		0		5		0
148		103		82		1		2		0
149		67		83		0		5		0
150		68		83		1		5		0
151		102		83		2		2		0
152		69		84		0		5		0
153		70		84		1		5		0
154		101		84		2		2		0
155		71		85		0		5		0
156		72		85		1		5		0
157		104		85		2		2		0
158		73		86		2		5		0
159		74		86		0		5		0
160		101		86		1		2		0
161		75		87		1		5		0
162		76		87		2		5		0
163		101		87		0		2		0
164		77		88		1		5		0
165		78		88		0		5		0
166		103		88		2		2		0
167		79		89		1		5		0
168		80		89		2		5		0
169		103		89		0		2		0
170		81		90		0		5		0
171		82		90		1		5		0
172		102		90		2		2		0
173		83		91		2		5		0
174		84		91		1		5		0
175		101		91		0		2		0
176		85		92		2		5		0
177		86		92		0		5		0
178		103		92		1		2		0
179		87		93		2		5		0
180		88		93		1		5		0
181		102		93		0		2		0
182		89		94		1		5		0
183		90		94		2		5		0
184		104		94		0		2		0
185		91		95		0		5		0
186		92		95		2		5		0
187		104		95		1		2		0
188		93		96		0		5		0
189		94		96		2		5		0
190		102		96		1		2		0
191		95		97		0		5		0
192		96		97		1		5		0
193		101		97		2		2		0
194		97		98		1		5		0
195		98		98		2		5		0
196		104		98		0		2		0
197		99		99		0		5		0
198		100		99		2		5		0
199		103		99		1		2		0
